100 8
302 796
66 171
552 240
390 245
124 176
503 738
702 477
12 95
90 180
469 64
276 755
436 739
39 67
193 768
174 573
272 630
519 191
629 61
323 879
296 723
436 772
627 588
95 609
411 205
338 39
424 116
246 652
690 604
13 207
922 285
720 625
635 241
421 603
295 552
669 242
432 45
131 52
433 729
768 695
839 242
594 352
836 252
782 657
474 229
292 219
27 187
478 370
614 233
696 631
267 314
428 773
695 505
102 188
471 613
405 841
587 736
411 563
280 653
412 728
455 771
844 690
560 326
591 204
61 740
496 668
94 212
213 765
211 594
269 729
143 317
797 246
890 794
397 818
614 614
651 92
203 190
489 310
319 737
801 289
789 628
440 562
12 55
167 677
623 181
403 485
727 672
482 114
467 312
402 801
280 785
782 106
830 182
173 189
636 627
619 325
463 470
462 820
800 230
720 466
715 580
